G = 50.0;
costo = [100.0, 80.0, 50.0];
capacidad = [600.0, 200.0, 300.0];
num_clientes = 2;
num_dias = 7;
num_plantas = 3;
pago = [200.0, 150.0];
demanda = [|110.0, 300.0, 400.0, 50.0, 30.0, 200.0, 55.0
|30.0, 100.0, 250.0, 60.0, 300.0, 100.0, 200.0
        |];
